
Gurobi 7.5.2 (linux64, Python) logging started Tue Dec 12 21:07:26 2017

Academic license - for non-commercial use only
Optimize a model with 2 rows, 3 columns and 5 nonzeros
Variable types: 0 continuous, 3 integer (3 binary)
Coefficient statistics:
  Matrix range     [1e+00, 3e+00]
  Objective range  [1e+00, 2e+00]
  Bounds range     [1e+00, 1e+00]
  RHS range        [1e+00, 4e+00]
Found heuristic solution: objective 2.0000000
Presolve removed 2 rows and 3 columns
Presolve time: 0.00s
Presolve: All rows and columns removed

Explored 0 nodes (0 simplex iterations) in 0.00 seconds
Thread count was 1 (of 4 available processors)

Solution count 2: 3 2 

Optimal solution found (tolerance 1.00e-04)
Best objective 3.000000000000e+00, best bound 3.000000000000e+00, gap 0.0000%

Gurobi 7.5.2 (linux64, Python) logging started Wed Feb 21 21:00:39 2018

Academic license - for non-commercial use only

Gurobi 7.5.2 (linux64, Python) logging started Wed Feb 21 21:01:13 2018

Academic license - for non-commercial use only

Gurobi 7.5.2 (linux64, Python) logging started Wed Feb 21 21:03:32 2018

Academic license - for non-commercial use only
Optimize a model with 304 rows, 178 columns and 1004 nonzeros
Coefficient statistics:
  Matrix range     [5e-01, 1e+00]
  Objective range  [1e-01, 3e-01]
  Bounds range     [0e+00, 0e+00]
  RHS range        [1e+01, 5e+01]
Presolve removed 274 rows and 140 columns
Presolve time: 0.04s
Presolved: 30 rows, 38 columns, 73 nonzeros

Iteration    Objective       Primal Inf.    Dual Inf.      Time
       0    0.0000000e+00   3.500000e+02   0.000000e+00      0s
      43    1.0500000e+02   0.000000e+00   0.000000e+00      0s

Solved in 43 iterations and 0.07 seconds
Optimal objective  1.050000000e+02

Gurobi 7.5.2 (linux64, Python) logging started Wed Feb 21 21:18:30 2018

Academic license - for non-commercial use only
Optimize a model with 304 rows, 178 columns and 1004 nonzeros
Coefficient statistics:
  Matrix range     [5e-01, 1e+00]
  Objective range  [1e-01, 3e-01]
  Bounds range     [0e+00, 0e+00]
  RHS range        [1e+01, 5e+01]
Presolve removed 274 rows and 140 columns
Presolve time: 0.00s
Presolved: 30 rows, 38 columns, 73 nonzeros

Iteration    Objective       Primal Inf.    Dual Inf.      Time
       0    0.0000000e+00   3.500000e+02   0.000000e+00      0s
      43    1.0500000e+02   0.000000e+00   0.000000e+00      0s

Solved in 43 iterations and 0.00 seconds
Optimal objective  1.050000000e+02

Gurobi 7.5.2 (linux64, Python) logging started Wed Feb 21 21:19:16 2018

Academic license - for non-commercial use only
Optimize a model with 304 rows, 178 columns and 1004 nonzeros
Coefficient statistics:
  Matrix range     [5e-01, 1e+00]
  Objective range  [1e-01, 3e-01]
  Bounds range     [0e+00, 0e+00]
  RHS range        [1e+01, 5e+01]
Presolve removed 274 rows and 140 columns
Presolve time: 0.00s
Presolved: 30 rows, 38 columns, 73 nonzeros

Iteration    Objective       Primal Inf.    Dual Inf.      Time
       0    0.0000000e+00   3.500000e+02   0.000000e+00      0s
      43    1.0500000e+02   0.000000e+00   0.000000e+00      0s

Solved in 43 iterations and 0.00 seconds
Optimal objective  1.050000000e+02

Gurobi 7.5.2 (linux64, Python) logging started Wed Feb 21 21:21:13 2018

Academic license - for non-commercial use only
Optimize a model with 304 rows, 178 columns and 1004 nonzeros
Coefficient statistics:
  Matrix range     [5e-01, 1e+00]
  Objective range  [1e-01, 3e-01]
  Bounds range     [0e+00, 0e+00]
  RHS range        [1e+01, 5e+01]
Presolve removed 274 rows and 140 columns
Presolve time: 0.00s
Presolved: 30 rows, 38 columns, 73 nonzeros

Iteration    Objective       Primal Inf.    Dual Inf.      Time
       0    0.0000000e+00   3.500000e+02   0.000000e+00      0s
      43    1.0500000e+02   0.000000e+00   0.000000e+00      0s

Solved in 43 iterations and 0.00 seconds
Optimal objective  1.050000000e+02
